c turning on binary mode checking
c parsing input formula with 202048 variables and 780985 clauses
c finished parsing, read 18840880 bytes from proof file
c detected empty clause; start verification via backward checking
c 15220 of 780985 clauses in core                            
c 21793 of 489824 lemmas in core using 195542 resolution steps
c 0 RAT lemmas in core; 2043 redundant literals in core lemmas
s VERIFIED
c verification time: 2.436 seconds
